(set-logic QF_S)
(declare-fun var0 () String)
(assert (str.in.re var0 (re.++ (re.union (re.+ (str.to.re "00")) (re.+ (str.to.re "111"))) (re.++ (re.+ (re.union (str.to.re "2") (str.to.re "33"))) (re.++ (re.union (re.union (str.to.re "44") (str.to.re "555")) (re.union (str.to.re "66") (str.to.re "77"))) (re.++ (re.+ (re.+ (str.to.re "888"))) (re.++ (re.union (re.* (str.to.re "999")) (re.* (str.to.re "a"))) (re.++ (re.* (re.union (str.to.re "b") (str.to.re "ccc"))) (re.++ (re.+ (re.* (str.to.re "dd"))) (re.++ (re.+ (re.* (str.to.re "ee"))) (re.++ (re.union (re.union (str.to.re "ff") (str.to.re "ggg")) (re.union (str.to.re "hh") (str.to.re "ii"))) (re.++ (re.* (re.* (str.to.re "jj"))) (re.++ (re.* (re.+ (str.to.re "k"))) (re.++ (re.union (re.* (str.to.re "l")) (re.* (str.to.re "m"))) (re.++ (re.union (re.+ (str.to.re "n")) (re.+ (str.to.re "o"))) (re.++ (re.union (re.* (str.to.re "pp")) (re.* (str.to.re "q"))) (re.++ (re.* (re.* (str.to.re "rr"))) (re.++ (re.* (re.union (str.to.re "ss") (str.to.re "t"))) (re.++ (re.+ (re.union (str.to.re "u") (str.to.re "v"))) (re.++ (re.union (re.+ (str.to.re "www")) (re.+ (str.to.re "xx"))) (re.++ (re.union (re.+ (str.to.re "y")) (re.+ (str.to.re "z"))) (re.++ (re.union (re.* (str.to.re "A")) (re.* (str.to.re "BB"))) (re.++ (re.union (re.union (str.to.re "C") (str.to.re "DDD")) (re.union (str.to.re "E") (str.to.re "FF"))) (re.++ (re.+ (re.+ (str.to.re "GG"))) (re.++ (re.union (re.+ (str.to.re "H")) (re.+ (str.to.re "III"))) (re.++ (re.union (re.* (str.to.re "J")) (re.* (str.to.re "KK"))) (re.++ (re.+ (re.* (str.to.re "LL"))) (re.++ (re.+ (re.union (str.to.re "M") (str.to.re "NN"))) (re.++ (re.union (re.* (str.to.re "O")) (re.* (str.to.re "PPP"))) (re.++ (re.+ (re.union (str.to.re "Q") (str.to.re "RR"))) (re.++ (re.* (re.+ (str.to.re "S"))) (re.++ (re.union (re.* (str.to.re "TT")) (re.* (str.to.re "UUU"))) (re.++ (re.+ (re.union (str.to.re "VVV") (str.to.re "W"))) (re.++ (re.union (re.union (str.to.re "XXX") (str.to.re "YY")) (re.union (str.to.re "ZZ") (str.to.re "!!"))) (re.++ (re.union (re.* (str.to.re """")) (re.* (str.to.re "#"))) (re.++ (re.union (re.* (str.to.re "$$")) (re.* (str.to.re "%"))) (re.++ (re.* (re.union (str.to.re "&&") (str.to.re "'''"))) (re.++ (re.+ (re.* (str.to.re "(("))) (re.++ (re.+ (re.* (str.to.re ")"))) (re.++ (re.* (re.* (str.to.re "***"))) (re.++ (re.union (re.* (str.to.re "+++")) (re.* (str.to.re ",,,"))) (re.++ (re.+ (re.* (str.to.re "---"))) (re.++ (re.+ (re.+ (str.to.re "..."))) (re.++ (re.+ (re.* (str.to.re "//"))) (re.++ (re.+ (re.* (str.to.re "::"))) (re.++ (re.union (re.union (str.to.re ";") (str.to.re "<<")) (re.union (str.to.re "==") (str.to.re ">"))) (re.++ (re.+ (re.union (str.to.re "???") (str.to.re "@"))) (re.++ (re.union (re.* (str.to.re "[[[")) (re.* (str.to.re "\\\\\\"))) (re.++ (re.* (re.+ (str.to.re "]]]"))) (re.++ (re.* (re.union (str.to.re "^") (str.to.re "___"))) (re.++ (re.union (re.* (str.to.re "`")) (re.* (str.to.re "{{{"))) (re.++ (re.union (re.union (str.to.re "|") (str.to.re "}")) (re.union (str.to.re "~~~") (str.to.re "0"))) (re.++ (re.union (re.* (str.to.re "1")) (re.* (str.to.re "2"))) (re.++ (re.* (re.union (str.to.re "3") (str.to.re "444"))) (re.++ (re.* (re.union (str.to.re "55") (str.to.re "66"))) (re.++ (re.* (re.+ (str.to.re "7"))) (re.++ (re.* (re.+ (str.to.re "88"))) (re.++ (re.union (re.+ (str.to.re "9")) (re.+ (str.to.re "aa"))) (re.++ (re.union (re.* (str.to.re "bb")) (re.* (str.to.re "c"))) (re.++ (re.union (re.union (str.to.re "d") (str.to.re "eee")) (re.union (str.to.re "f") (str.to.re "gg"))) (re.++ (re.* (re.+ (str.to.re "h"))) (re.++ (re.union (re.* (str.to.re "ii")) (re.* (str.to.re "jjj"))) (re.++ (re.union (re.+ (str.to.re "kkk")) (re.+ (str.to.re "l"))) (re.++ (re.* (re.union (str.to.re "m") (str.to.re "n"))) (re.++ (re.union (re.union (str.to.re "o") (str.to.re "p")) (re.union (str.to.re "qqq") (str.to.re "rr"))) (re.++ (re.+ (re.+ (str.to.re "s"))) (re.++ (re.union (re.+ (str.to.re "tt")) (re.+ (str.to.re "uuu"))) (re.++ (re.* (re.union (str.to.re "vv") (str.to.re "ww"))) (re.++ (re.union (re.+ (str.to.re "xx")) (re.+ (str.to.re "y"))) (re.++ (re.* (re.+ (str.to.re "zzz"))) (re.++ (re.union (re.* (str.to.re "AAA")) (re.* (str.to.re "BB"))) (re.++ (re.union (re.* (str.to.re "CC")) (re.* (str.to.re "DD"))) (re.++ (re.+ (re.+ (str.to.re "E"))) (re.++ (re.+ (re.union (str.to.re "F") (str.to.re "GG"))) (re.++ (re.union (re.* (str.to.re "H")) (re.* (str.to.re "II"))) (re.++ (re.* (re.* (str.to.re "J"))) (re.++ (re.* (re.* (str.to.re "KKK"))) (re.++ (re.* (re.* (str.to.re "L"))) (re.++ (re.union (re.union (str.to.re "MMM") (str.to.re "NN")) (re.union (str.to.re "OO") (str.to.re "PP"))) (re.++ (re.union (re.union (str.to.re "QQQ") (str.to.re "R")) (re.union (str.to.re "SSS") (str.to.re "TTT"))) (re.++ (re.union (re.* (str.to.re "U")) (re.* (str.to.re "V"))) (re.++ (re.* (re.* (str.to.re "WW"))) (re.++ (re.* (re.+ (str.to.re "XXX"))) (re.++ (re.* (re.+ (str.to.re "YYY"))) (re.++ (re.union (re.* (str.to.re "ZZZ")) (re.* (str.to.re "!"))) (re.++ (re.+ (re.* (str.to.re """"))) (re.++ (re.+ (re.+ (str.to.re "##"))) (re.++ (re.union (re.* (str.to.re "$$")) (re.* (str.to.re "%"))) (re.++ (re.union (re.* (str.to.re "&")) (re.* (str.to.re "'''"))) (re.++ (re.* (re.* (str.to.re "(("))) (re.++ (re.union (re.union (str.to.re ")))") (str.to.re "*")) (re.union (str.to.re "+") (str.to.re ",,"))) (re.++ (re.* (re.* (str.to.re "--"))) (re.++ (re.+ (re.union (str.to.re "..") (str.to.re "/"))) (re.++ (re.* (re.union (str.to.re ":::") (str.to.re ";"))) (re.++ (re.+ (re.* (str.to.re "<"))) (re.++ (re.+ (re.union (str.to.re "==") (str.to.re ">>"))) (re.++ (re.+ (re.union (str.to.re "???") (str.to.re "@"))) (re.++ (re.* (re.* (str.to.re "[[["))) (re.++ (re.+ (re.* (str.to.re "\\"))) (re.++ (re.union (re.union (str.to.re "]]]") (str.to.re "^")) (re.union (str.to.re "___") (str.to.re "``"))) (re.union (re.* (str.to.re "{")) (re.* (str.to.re "||")))))))))))))))))))))))))))))))))))))))))))))))))))))))))))))))))))))))))))))))))))))))))))))))))))))))
(check-sat)